N = 30;
M = 38;
Edge_Start = [1, 1, 2, 3, 3, 4, 5, 5, 6, 7, 8, 9, 9, 10, 11, 11, 12, 13, 13, 14, 15, 16, 16, 17, 18, 18, 19, 20, 20, 21, 22, 22, 24, 25, 26, 27, 28, 29];
Edge_End = [2, 8, 3, 4, 10, 5, 6, 12, 7, 14, 9, 10, 17, 11, 12, 19, 13, 14, 21, 15, 23, 17, 24, 18, 19, 26, 20, 21, 28, 22, 23, 30, 25, 26, 27, 28, 29, 30];
L = [4, 3, 4, 5, 5, 3, 2, 2, 4, 2, 3, 2, 4, 5, 4, 4, 5, 2, 4, 4, 2, 4, 3, 2, 4, 5, 3, 5, 3, 2, 3, 2, 5, 3, 4, 3, 4, 2];
T = [2, 5, 5, 9, 3, 2, 1, 4, 4, 6, 5, 7, 8, 6, 2, 6, 10, 0, 8, 7, 7, 5, 7, 1, 6, 10, 2, 7, 3, 7, 8, 1, 4, 3, 3, 2, 5, 2];
Lower_Bound = [5, 5, 4, 4, 1, 5, 2, 5, 0, 4, 2, 5, 4, 5, 3, 0, 5, 3, 3, 2, 4, 0, 3, 5, 5, 1, 5, 0, 3, 3];
Upper_Bound = [35, 65, 70, 81, 83, 84, 92, 44, 90, 97, 103, 106, 118, 118, 129, 60, 101, 102, 109, 111, 130, 137, 147, 95, 102, 120, 125, 127, 133, 138];
Start = 1;
End = 30;
Time = 183;
